(set-logic QF_S)
(declare-fun var0 () String)
(assert (str.in.re var0 (re.++ (re.* (re.union (str.to.re "0") (str.to.re "11"))) (re.++ (re.+ (re.union (str.to.re "22") (str.to.re "3"))) (re.++ (re.union (re.+ (str.to.re "444")) (re.+ (str.to.re "55"))) (re.++ (re.union (re.+ (str.to.re "6")) (re.+ (str.to.re "77"))) (re.++ (re.* (re.* (str.to.re "8"))) (re.++ (re.* (re.+ (str.to.re "9"))) (re.++ (re.union (re.* (str.to.re "a")) (re.* (str.to.re "bbb"))) (re.++ (re.union (re.* (str.to.re "ccc")) (re.* (str.to.re "d"))) (re.++ (re.* (re.union (str.to.re "eee") (str.to.re "ff"))) (re.+ (re.* (str.to.re "ggg"))))))))))))))
(assert (<= 276 (str.len var0)))
(check-sat)